831.69 0
0 12 80 68 24 29 78 34 35 71 65 66 20 30 70 69 0 
0 31 10 32 90 63 64 49 36 46 45 17 84 5 60 89 0 
0 52 7 88 62 11 19 47 48 82 8 83 18 0 
0 4 56 23 67 39 25 55 54 26 0 
0 95 92 37 100 91 44 14 38 86 16 61 99 96 6 0 
0 53 40 21 73 72 74 75 22 41 15 43 42 57 2 58 0 
0 28 76 77 3 79 33 81 9 51 50 1 27 0 
0 94 59 93 85 98 97 87 13 0 
